Comps = {frontend0, frontend1, backend0, backend1, backend2, database0, database1};
mustComps = {frontend0, frontend1};
Flavs = {tiny, medium, large};
Nodes = {n1, n2, n3};
CRes = {CPU, RAM, storage, bwIn, bwOut};
NRes = {ssl, fwall, encr, avail, latency};
Flav = [{medium, large}, {medium, large}, {tiny, medium, large}, {tiny, medium, large}, {tiny, medium, large}, {large}, {large}];
Uses = [{backend0}, {backend0}, {backend0}, {backend0}, {}, {}, {}, {database1}, {database0}, {database0}, {database1}, {database0}, {database0}, {}, {}];
MAX_BOUND = 1000000;

worstBounds = [0, 0, 0, 0, 0, 0, 0, 0, 0, MAX_BOUND];
bestBounds = [MAX_BOUND - i | i in worstBounds];

comReq = array2d(CompFlavs, Res, [
  2, 458, 227, 498, 736, 1, 0, 0, 96, MAX_BOUND,
  2, 413, 344, 360, 886, 1, 1, 1, 96, MAX_BOUND,
  2, 276, 388, 338, 787, 1, 0, 0, 96, MAX_BOUND,
  2, 404, 333, 219, 928, 0, 1, 1, 95, MAX_BOUND,
  4, 220, 346, 734, 297, 1, 1, 1, 95, MAX_BOUND,
  4, 253, 233, 590, 387, 1, 1, 0, 97, MAX_BOUND,
  2, 451, 500, 494, 974, 1, 0, 1, 96, MAX_BOUND,
  4, 354, 223, 344, 772, 1, 1, 1, 97, MAX_BOUND,
  4, 381, 445, 621, 372, 1, 1, 0, 96, MAX_BOUND,
  2, 289, 291, 784, 384, 1, 1, 0, 95, MAX_BOUND,
  2, 309, 475, 288, 533, 1, 1, 0, 96, MAX_BOUND,
  2, 354, 266, 511, 438, 1, 1, 1, 97, MAX_BOUND,
  2, 401, 473, 857, 653, 1, 1, 1, 95, MAX_BOUND,
  2, 475, 492, 668, 913, 1, 0, 0, 97, MAX_BOUND,
  2, 453, 339, 925, 604, 1, 1, 1, 97, MAX_BOUND,
]);

nodeCap = array2d(Nodes0, Res, [bestBounds[r] | r in Res] ++ [
  32, 34488, 573862, 16663, 19356, 1, 1, 1, 99, 0,
  16, 42629, 868477, 18595, 20936, 1, 1, 1, 98, 0,
  16, 116029, 941032, 21148, 23644, 0, 1, 1, 98, 0,
]);

cost = array2d(Nodes0, Res, [
  0, 0, 0, 0, 0, 0, 0, 0, 0, 0, % no node
  13, 8, 17, 0, 0, 0, 0, 0, 0, 0,
  19, 10, 22, 0, 0, 0, 0, 0, 0, 0,
  11, 5, 19, 0, 0, 0, 0, 0, 0, 0,
]);

cons = array2d(Nodes0, Res, [
  0, 0, 0, 0, 0, 0, 0, 0, 0, 0, % no node
  41, 47, 49, 0, 0, 0, 0, 0, 0, 0,
  18, 16, 32, 0, 0, 0, 0, 0, 0, 0,
  25, 15, 19, 0, 0, 0, 0, 0, 0, 0,
]);

costWeight = 0;
consWeight = 1;

costBudget = 62686;
consBudget = 65449;

depReq = array3d(Comps, Comps, Res, [
  if c1 = frontend1 /\ c2 = backend2 /\ r = N(avail) then
    95
  elseif c1 = frontend0 /\ c2 = backend0 /\ r = N(avail) then
    95
  elseif c1 = frontend0 /\ c2 = backend1 /\ r = N(avail) then
    96
  elseif c1 = frontend1 /\ c2 = backend1 /\ r = N(avail) then
    96
  elseif c1 = frontend1 /\ c2 = backend0 /\ r = N(avail) then
    95
  else
    worstBounds[r]
  endif | c1 in Comps, c2 in Comps, r in Res]);

linkCap = array3d(Nodes0, Nodes0, Res, [
  if ni = 0 \/ nj = 0 then
    bestBounds[r]
  elseif ni = nj /\ r = N(avail) then
    nodeCap[ni,r]
  elseif {ni, nj} = {n1, n3} /\ r = N(avail) then
    98
  elseif {ni, nj} = {n1, n2} /\ r = N(avail) then
    99
  elseif {ni, nj} = {n2, n3} /\ r = N(avail) then
    99
  else
    worstBounds[r]
  endif | ni in Nodes0, nj in Nodes0, r in Res]);

imp = array2d(Comps, Flavs, [
  3, 9, 10,
  8, 9, 10,
  2, 3, 10,
  1, 5, 10,
  3, 6, 9,
  1, 3, 5,
  1, 4, 9,
]);

